NAME: test1636
TYPE: TSP
DIMENSION: 11
EDGE_WEIGHT_TYPE: EUC_2D
NODE_COORD_SECTION
1 38.44258001575793 69.66485285783988
2 14.55504813752172 64.4361804553282
3 61.17209235214639 91.36131156894109
4 7.671939114387993 89.33867300262277
5 87.29262748003991 29.171215448101773
6 76.90206995922357 21.095096197498865
7 42.53826359240029 14.125927782851665
8 57.844642267938006 7.541874335390331
9 55.77743323833835 3.469533941698
10 39.76797575037501 61.791635504592314
11 8.349123540016345 2.4733339449023006
EOF
